750
[151,152,154,155,156,157,158,159,160,161,162,163,165,166,167,168,169,170,171,172,173,174,176,177,179,180,181,182,184,185,186,187,188,189,190,191,192,193,194,195,197,198,199,200,201,203,204,205,206,207,208,209,210,211,212,213,215,216,217,218,219,220,221,222,223,224,225,226,227,228,230,231,232,233,234,236,237,240,241,242,243,244,245,246,247,248,249,250,251,253,254,255,258,259,260,261,262,263,264,265,266,267,268,270,271,272,274,275,277,278,279,280,281,283,284,285,286,287,289,290,291,292,293,294,295,297,299,300,301,302,304,305,306,307,308,309,310,311,312,313,314,315,316,318,319,321,322,325,326,327,328,330,331,332,333,334,335,336,337,338,339,340,341,342,343,344,345,347,348,349,350,351,352,353,354,355,356,357,358,359,360,361,362,363,364,365,366,368,369,370,371,372,373,374,375,376,377,378,379,380,381,382,383,384,385,386,388,389,390,391,392,393,394,395,396,397,398,399,400,401,402,404,405,406,407,408,409,410,412,413,414,415,417,418,419,420,422,423,424,425,427,428,429,430,431,432,434,435,436,437,438,439,440,441,442,443,444,445,446,447,448,451,455,456,458,459,461,462,463,464,465,470,473,475,476,477,478,479,480,481,482,483,484,485,486,487,488,489,490,491,492,493,495,496,497,498,499,501,502,503,504,505,507,508,509,512,513,514,515,516,517,518,519,520,521,522,523,524,525]
[1,1,4,3,1,1,1,4,3,4,1,4,1,1,1,2,3,2,2,3,9,1,3,1,1,3,5,1,2,1,5,2,3,2,1,1,6,2,1,1,1,1,5,6,2,3,3,7,3,3,6,1,1,1,1,4,1,2,1,2,1,2,5,2,2,2,1,2,1,3,1,2,3,4,1,2,4,1,5,1,2,1,1,1,2,5,4,2,2,1,2,3,2,1,3,1,1,6,1,2,3,1,2,2,1,1,1,2,5,2,3,2,1,1,1,5,1,1,2,1,4,1,6,2,1,1,5,3,1,3,3,2,3,1,2,4,4,2,1,1,1,3,2,1,1,3,3,1,2,4,2,1,2,3,1,1,3,2,1,2,1,1,1,1,4,2,3,2,1,2,5,2,5,1,4,5,3,1,2,1,3,6,3,4,2,4,1,1,3,2,1,1,4,8,2,1,3,2,3,5,3,2,3,2,1,4,3,1,4,3,1,1,2,2,5,2,3,2,3,1,2,2,3,1,3,7,2,2,1,2,2,6,4,3,4,2,2,5,1,2,2,1,1,1,3,2,2,3,3,3,1,1,1,3,2,5,1,3,2,2,2,1,2,4,2,2,2,2,1,3,4,3,3,3,2,2,1,2,3,2,1,4,1,2,4,4,1,2,4,3,2,1,2,1,3,1,3,4,3,1,5,2,3,3,2,1,1,3,2,3,2,1,2,1,1,4,1,3,2]
